; aiokafka :: corpus-study/repo_src/aiokafka/aiokafka/consumer/group_coordinator.py :: LOCK 'GroupCoordinator._commit_lock' :: structured encoding (verdict: unsat)
; Generated by snf-pipeline (encoder.py) -- run with any
; SMT-LIB2-compliant solver, e.g. `z3 aiokafka__corpus-study_repo_src_aiokafka_aiokafka_consumer_group_coordinator.py__GroupCoordinator._commit_lock__structured.smt2`
; benchmark generated from python API
(set-info :status unknown)
(declare-fun lorder_0 () Int)
(declare-fun lorder_1 () Int)
(assert
 (>= lorder_0 1))
(assert
 (<= lorder_0 2))
(assert
 (>= lorder_1 1))
(assert
 (<= lorder_1 2))
(assert
 (and (distinct lorder_0 lorder_1) true))
(assert
 (let (($x33 (= lorder_0 lorder_1)))
(or $x33)))
(check-sat)
